networks/zoo_34_109/zoo_34_109-lower.sol
<?xml version = "1.0" encoding="UTF-8" standalone="yes"?>
<CPLEXSolution version="1.2">
 <header
   problemName="networks/zoo_34_109/zoo_34_109-lower.lp"
   solutionName="incumbent"
   solutionIndex="-1"
   objectiveValue="17"
   solutionTypeValue="3"
   solutionTypeString="primal"
   solutionStatusValue="101"
   solutionStatusString="integer optimal solution"
   solutionMethodString="mip"
   primalFeasible="1"
   dualFeasible="1"
   MIPNodes="0"
   MIPIterations="0"
   writeLevel="3"/>
 <quality
   epInt="1.0000000000000001e-05"
   epRHS="9.9999999999999995e-07"
   maxIntInfeas="0"
   maxPrimalInfeas="0"
   maxX="1"
   maxSlack="1"/>
 <variables>
  <variable name="Y(1,4)" index="3" value="1"/>
  <variable name="Y(2,6)" index="39" value="1"/>
  <variable name="Y(3,13)" index="80" value="1"/>
  <variable name="Y(4,15)" index="116" value="1"/>
  <variable name="Y(5,16)" index="151" value="1"/>
  <variable name="Y(6,1)" index="170" value="1"/>
  <variable name="Y(17,3)" index="546" value="1"/>
  <variable name="Y(20,7)" index="652" value="1"/>
  <variable name="Y(21,9)" index="688" value="1"/>
  <variable name="Y(22,10)" index="723" value="1"/>
  <variable name="Y(23,11)" index="758" value="1"/>
  <variable name="Y(24,12)" index="793" value="1"/>
  <variable name="Y(26,14)" index="863" value="1"/>
  <variable name="Y(29,17)" index="968" value="1"/>
  <variable name="Y(49,2)" index="1633" value="1"/>
  <variable name="Y(52,5)" index="1738" value="1"/>
  <variable name="Y(55,8)" index="1843" value="1"/>
  <variable name="X(1,4,1)" index="3706" value="1"/>
  <variable name="X(1,8,3)" index="3817" value="1"/>
  <variable name="X(1,18,6)" index="3929" value="1"/>
  <variable name="X(2,19,49)" index="4081" value="1"/>
  <variable name="X(3,6,8)" index="4149" value="1"/>
  <variable name="X(3,8,6)" index="4256" value="1"/>
  <variable name="X(3,13,7)" index="4366" value="1"/>
  <variable name="X(3,20,17)" index="4485" value="1"/>
  <variable name="X(4,1,11)" index="4588" value="1"/>
  <variable name="X(4,10,2)" index="4688" value="1"/>
  <variable name="X(4,16,5)" index="4800" value="1"/>
  <variable name="X(4,21,1)" index="4905" value="1"/>
  <variable name="X(5,10,16)" index="5029" value="1"/>
  <variable name="X(5,13,17)" index="5139" value="1"/>
  <variable name="X(5,16,28)" index="5259" value="1"/>
  <variable name="X(5,22,52)" index="5392" value="1"/>
  <variable name="X(6,3,30)" index="5479" value="1"/>
  <variable name="X(6,7,20)" index="5578" value="1"/>
  <variable name="X(6,10,31)" index="5698" value="1"/>
  <variable name="X(6,13,33)" index="5809" value="1"/>
  <variable name="X(6,16,35)" index="5920" value="1"/>
  <variable name="X(6,23,2)" index="5996" value="1"/>
  <variable name="X(7,6,30)" index="6133" value="1"/>
  <variable name="X(7,24,20)" index="6232" value="1"/>
  <variable name="X(8,1,6)" index="6327" value="1"/>
  <variable name="X(8,3,38)" index="6468" value="1"/>
  <variable name="X(8,9,21)" index="6560" value="1"/>
  <variable name="X(8,13,3)" index="6651" value="1"/>
  <variable name="X(8,16,41)" index="6798" value="1"/>
  <variable name="X(8,25,55)" index="6921" value="1"/>
  <variable name="X(9,8,42)" index="7017" value="1"/>
  <variable name="X(9,26,21)" index="7105" value="1"/>
  <variable name="X(10,2,49)" index="7242" value="1"/>
  <variable name="X(10,4,7)" index="7309" value="1"/>
  <variable name="X(10,5,52)" index="7463" value="1"/>
  <variable name="X(10,6,2)" index="7522" value="1"/>
  <variable name="X(10,11,23)" index="7652" value="1"/>
  <variable name="X(10,12,24)" index="7762" value="1"/>
  <variable name="X(10,13,13)" index="7860" value="1"/>
  <variable name="X(10,15,4)" index="7960" value="1"/>
  <variable name="X(10,16,62)" index="8127" value="1"/>
  <variable name="X(10,27,22)" index="8196" value="1"/>
  <variable name="X(11,10,64)" index="8347" value="1"/>
  <variable name="X(11,28,23)" index="8415" value="1"/>
  <variable name="X(12,10,66)" index="8567" value="1"/>
  <variable name="X(12,13,70)" index="8680" value="1"/>
  <variable name="X(12,29,24)" index="8743" value="1"/>
  <variable name="X(13,3,17)" index="8845" value="1"/>
  <variable name="X(13,5,76)" index="9013" value="1"/>
  <variable name="X(13,6,77)" index="9123" value="1"/>
  <variable name="X(13,8,21)" index="9176" value="1"/>
  <variable name="X(13,10,7)" index="9271" value="1"/>
  <variable name="X(13,15,40)" index="9413" value="1"/>
  <variable name="X(13,16,10)" index="9492" value="1"/>
  <variable name="X(13,30,3)" index="9594" value="1"/>
  <variable name="X(14,31,26)" index="9726" value="1"/>
  <variable name="X(15,10,80)" index="9889" value="1"/>
  <variable name="X(15,13,81)" index="9999" value="1"/>
  <variable name="X(15,14,26)" index="10053" value="1"/>
  <variable name="X(15,16,92)" index="10228" value="1"/>
  <variable name="X(15,32,4)" index="10249" value="1"/>
  <variable name="X(16,2,95)" index="10449" value="1"/>
  <variable name="X(16,4,94)" index="10557" value="1"/>
  <variable name="X(16,5,98)" index="10670" value="1"/>
  <variable name="X(16,6,96)" index="10777" value="1"/>
  <variable name="X(16,8,101)" index="10891" value="1"/>
  <variable name="X(16,10,103)" index="11002" value="1"/>
  <variable name="X(16,13,106)" index="11114" value="1"/>
  <variable name="X(16,15,107)" index="11224" value="1"/>
  <variable name="X(16,17,29)" index="11255" value="1"/>
  <variable name="X(16,33,5)" index="11340" value="1"/>
  <variable name="X(17,34,29)" index="11473" value="1"/>
 </variables>
</CPLEXSolution>
